Results/Experiment 1 Results/Existing Benchmark/RES_100/i-100-75-7.txt
solutions: 0 nodes: 3  modelTime: 115  solveTime: 27  totalTime: 152  modelSize: 8381  readTime: 10 matchingSize: 0
