Results/Experiment 2 Results/Existing Benchmark/i-100-75-7.lp
clingo version 5.4.0
Reading from tempSRTISolver.lp ...
Solving...
UNSATISFIABLE

Models       : 0
Calls        : 1
Time         : 30.450s (Solving: 4.36s 1st Model: 0.00s Unsat: 4.36s)
CPU Time     : 30.442s
